100 10
794 698
153 406
975 589
292 769
898 666
773 596
691 603
752 211
611 524
675 645
788 481
521 364
801 490
808 592
727 472
397 323
550 686
401 135
570 246
549 412
319 511
562 644
767 143
395 379
746 580
816 764
335 589
581 329
606 790
553 291
571 418
244 644
360 378
637 293
338 605
275 400
859 600
711 473
573 60
909 270
731 872
503 448
432 244
486 586
735 521
605 540
579 522
391 352
681 359
319 638
872 641
591 592
587 412
884 737
753 669
780 506
249 471
217 695
760 706
526 240
156 372
656 352
551 831
753 674
308 579
209 508
540 831
307 355
906 695
412 601
480 153
86 372
655 149
641 281
684 740
661 518
671 545
613 629
596 316
490 397
523 644
630 858
514 647
552 371
499 354
509 170
820 337
356 413
185 518
537 316
348 290
349 356
796 383
580 554
644 481
767 401
567 565
365 144
804 352
360 537
